Minimize
 obj: 1 x1 + 9 x2 + 3.3 x3 + 1.7 x4

Subject To
 nutrient1: 0.5 x1 + 0.2 x2 + 0.333 x3 + 0 x4 >= 1
 nutrient2: 0 x1 + 0 x2 + 0.1 x3 + 0.333 x4 >= 6
 nutrient3: 0 x1 + 0.5 x2 + 0 x3 + 0.5 x4 >= 8

Bounds
 x1 >= 0
 x2 >= 0
 x3 >= 0
 x4 >= 0

End

